p cnf 21 18
-1 3 11 19 0 
-2 19 0 
-3 1 11 20 0 
-4 15 17 21 0 
-5 19 0 
-6 7 9 10 21 0 
-7 6 9 10 21 0 
-8 14 16 21 0 
-9 6 7 10 21 0 
-10 6 7 9 -11 1 3 -2 -12 -13 20 0 
-8 14 16 19 0 
-14 8 16 20 0 
-15 4 17 21 0 
-16 8 14 20 0 
-5 21 0 
-7 6 9 10 19 0 
-12 -13 -17 4 15 -18 -14 8 16 20 0 
-18 -13 -17 4 15 20 0 
